NAME : local_7
TYPE : ATSP
DIMENSION : 10
EDGE_WEIGHT_TYPE : EXPLICIT
EDGE_WEIGHT_FORMAT : FULL_MATRIX
EDGE_WEIGHT_SECTION
0 1047 1006 669 725 10000000 10000000 371 1042 1337 
0 0 1041 10000000 10000000 510 808 10000000 259 597 
0 1023 0 656 10000000 10000000 10000000 10000000 10000000 965 
0 10000000 656 0 421 10000000 971 771 10000000 697 
0 10000000 10000000 421 0 836 691 649 10000000 572 
0 510 10000000 10000000 836 0 323 10000000 581 343 
0 808 10000000 971 691 323 0 10000000 870 366 
0 10000000 10000000 771 649 10000000 10000000 0 10000000 10000000 
0 259 10000000 10000000 10000000 581 870 10000000 0 734 
0 10000000 10000000 10000000 10000000 10000000 10000000 10000000 10000000 0 
EOF